c This is an instance of the exact track of PACE 2020 Challenge, see https://pacechallenge.org/2020/ 
c TYPE: biology 
c ORIGIN: www.genome.jp/kegg/ 
c DESCRIPTION: This is a graph derived from a biological pathway map. The nodes are genes (also representing their associated proteins), enzymes, or chemical compounds, and there is an edge between two nodes if they influence each other (such as a gene modifying the expression of another gene) or take part in a common chemical reaction. This graph is a connected part of the map "ncc00230 Purine metabolism - Notothenia coriiceps (black rockcod)". 
p tdp 84 339
10 47
10 6
10 12
10 9
10 13
10 14
10 45
10 46
10 7
10 8
47 11
47 14
47 83
47 56
47 55
47 9
47 13
47 59
47 62
47 8
47 7
47 61
47 12
47 58
47 50
47 57
47 81
47 60
47 6
59 71
59 57
59 77
59 55
59 60
59 70
59 50
59 56
59 74
59 73
59 62
59 61
71 75
71 77
71 56
71 76
71 83
71 58
71 72
71 57
71 70
57 70
57 50
57 60
57 74
57 55
57 73
57 62
57 77
57 61
57 56
78 79
78 42
6 9
6 81
6 11
6 12
6 7
6 8
6 13
6 14
6 5
9 12
9 14
9 8
9 46
9 13
9 81
9 11
9 45
9 7
58 74
58 50
58 56
58 55
58 70
58 60
58 77
58 61
58 62
58 73
74 56
74 72
74 83
74 75
74 76
74 70
74 77
7 12
7 80
7 22
7 82
7 26
7 21
7 25
7 8
7 15
7 40
7 24
7 11
7 81
7 14
7 84
7 13
7 23
12 50
12 13
12 51
12 8
12 48
12 14
12 49
12 11
12 81
73 83
73 72
73 77
73 75
73 70
73 76
73 56
83 62
83 61
83 50
83 60
83 76
83 75
83 55
83 72
13 20
13 19
13 11
13 18
13 8
13 17
13 81
13 14
20 18
20 38
20 19
20 17
22 33
22 21
22 31
22 24
22 40
22 23
22 80
22 25
22 26
22 32
22 29
22 15
22 84
22 30
33 82
33 29
33 31
33 30
33 39
33 21
80 21
80 84
80 23
80 39
80 25
80 82
80 15
80 24
80 26
18 17
18 51
18 52
18 53
18 43
82 25
82 31
82 30
82 32
82 23
82 84
82 26
82 24
82 15
82 29
82 40
64 65
64 53
64 60
64 61
64 63
65 67
65 66
77 70
26 27
26 21
26 40
26 15
26 23
26 16
26 84
26 24
27 23
27 24
27 25
27 16
25 16
25 21
25 84
25 15
25 23
25 24
25 40
31 30
31 21
31 32
31 39
31 29
75 55
75 56
75 72
11 8
11 46
11 45
11 14
21 29
21 32
21 84
21 40
21 24
21 23
21 30
21 15
72 56
72 76
14 8
14 17
14 16
14 81
2 3
2 1
3 4
3 5
62 55
62 60
62 61
62 56
62 63
62 50
84 24
84 15
84 40
84 23
36 37
36 29
36 34
36 35
37 38
37 28
70 68
70 69
70 66
8 81
8 15
50 55
50 48
50 51
50 49
50 60
50 56
50 61
55 61
55 60
55 76
55 56
67 69
67 68
67 66
17 16
17 19
38 28
23 15
23 28
23 24
23 40
19 52
19 51
19 44
19 53
61 56
61 53
61 63
69 66
29 30
29 32
29 35
29 34
43 52
43 51
43 41
43 53
52 44
52 51
52 48
52 53
51 49
51 53
51 44
51 48
16 24
24 40
24 15
30 39
56 76
56 60
60 53
60 63
48 49
49 54
40 39
40 15
53 44
53 63
45 81
81 46
44 41
32 39
4 5
41 42
68 66
